%mem=1GB
%nprocshared=1
#p hf/sto-3g

Test

0 2
H 0.0 0.0 0.0

    0.000000    -8.403500     0.000000    -1.125000
    0.000000     8.403500     0.000000    -1.125000

