%mem=1GB
%nprocshared=1
#p hf/sto-3g

Test

0 2
H 0.0 0.0 0.0

0.0 0.0 1.0  0.5
0.0 0.0 2.0 -0.5
