%mem=4GB
%nprocshared=4
#p NEVPT2/cc-pVQZ

mokit{readuhf='02-N2_cc-pVQZ_6D10F_4.0_uhf.fchk',ist=1}

