%mem=4GB
%nprocshared=4
#p NEVPT2/cc-pVQZ

mokit{readuhf='N2_cc-pVQZ_6D10F_4.0_uhf.fchk',ist=1,cart}

# This example shows you how to read MOs from a given UHF .fch(k) file
# and perform NEVPT2 computation
