%mem=8GB
%nprocshared=8
#p CASPT2/cc-pVDZ

mokit{readuhf='B3_cc-pVDZ_5D7F_uhf.fchk',ist=2,nocart,casscf_prog=orca,localm=pm}
