%mem=8GB
%nprocshared=4
#p CASSCF(6,6)/cc-pVTZ

mokit{readuhf='N2_cc-pVTZ_6D10F_charge_uhf.fchk',ist=1,charge,cart}

 4.0  0.0  0.0  0.1
-4.0  0.0  0.0  0.1

# This example shows you how to read MOs from a given UHF .fch(k) file
# and perform CASSCF computation with background charges

# To run this example, you need to install PySCF and GAMESS
