%mem=8GB
%nprocshared=4
#p MRCISD/def2TZVP

mokit{CtrType=2}

0 2
N  0.0   0.0   0.0
O  0.0   0.0   1.136

