%mem=8GB
%nprocshared=4
#p MCPDFT/def2TZVP

mokit{}

0 2
N  0.0   0.0   0.0
O  0.0   0.0   1.136

# This example shows you how to perform MC-PDFT computation
