%mem=8GB
%nprocshared=4
#p CASSCF/def2TZVP

mokit{root=1, RI}

0 1
O      -0.23497692    0.90193619   -0.068688
H       1.26502308    0.90193619   -0.068688
H      -0.73568721    2.31589843   -0.068688

