%oldchk=test.chk
%chk=test2.chk
#p hf chkbasis nosymm int=nobasistransform gfinput
# geom=allcheck guess=read


